558,237
709,229
727,264
1001,243
681,46
488,140
254,267
231,406
471,406
591,406
471,406
293,124
607,178
558,237
664,382
690,378
644,292
795,369
1155,331
838,891
847,919
561,776
515,919
542,833
838,891
254,267
311,286
575,300
624,424
618,469
591,406
829,554
655,393
652,410
769,285
753,354
690,378
652,410
727,264
980,-6
998,-30
753,354
658,554
561,776
618,469
769,285
1062,25
681,46
732,81
1062,25
